results_rootrelaxation/bin018_060_044.srr.sol
solution status: optimal solution found
objective value:                 -6.6474340056914e-15
_var1462_                           0.278579797313802 	(obj:0)
_var2659_                            0.30624523917172 	(obj:0)
_var2666_                           0.120820935879176 	(obj:0)
_var2675_                          0.0431727355121451 	(obj:0)
_var2684_                          0.0917042527883844 	(obj:0)
_var2721_                           0.133438200786177 	(obj:0)
_var2737_                          0.0485388901073708 	(obj:0)
_var2744_                          0.0594825026122665 	(obj:0)
_var2749_                          0.0877745140862575 	(obj:0)
_var2756_                            0.28443488098037 	(obj:0)
_var2767_                          0.0434428598198618 	(obj:0)
_var2771_                          0.0816918000262433 	(obj:0)
_var2779_                           0.105598111165651 	(obj:0)
_var2780_                            0.29044286345644 	(obj:0)
_var2800_                           0.146611397260556 	(obj:0)
_var2801_                           0.397696153624202 	(obj:0)
_var2802_                           0.183555421703897 	(obj:0)
_var2808_                           0.275159039628683 	(obj:0)
_var2813_                         0.00165540289420557 	(obj:0)
_var2827_                          0.0260541789416271 	(obj:0)
_var2842_                          0.0994575314538846 	(obj:0)
_var2847_                           0.187906024969659 	(obj:0)
_var2849_                          0.0385122505025608 	(obj:0)
_var2850_                           0.251917795829362 	(obj:0)
_var2862_                           0.316102046741725 	(obj:0)
_var2866_                           0.169059435366719 	(obj:0)
_var2870_                          0.0549991482496265 	(obj:0)
_var2872_                          0.0306667864693059 	(obj:0)
_var2874_                           0.319617897498832 	(obj:0)
_var2878_                          0.0503488414760668 	(obj:0)
_var2881_                           0.154425442479813 	(obj:0)
_var2888_                          0.0787430966672151 	(obj:0)
_var2889_                           0.132911696247599 	(obj:0)
_var2891_                          0.0308240996921503 	(obj:0)
_var2900_                          0.0658328691892692 	(obj:0)
_var2903_                            0.22030816128697 	(obj:0)
_var2913_                          0.0996605456386926 	(obj:0)
_var2918_                          0.0551990959382625 	(obj:0)
_var2922_                           0.166964483089993 	(obj:0)
_var2923_                           0.199120966251141 	(obj:0)
_var2925_                           0.293307312138142 	(obj:0)
_var2926_                          0.0628046530768747 	(obj:0)
_var2932_                           0.125055169893776 	(obj:0)
_var2936_                          0.0286146933967905 	(obj:0)
_var2940_                           0.262174173534863 	(obj:0)
_var2941_                          0.0758356196148957 	(obj:0)
_var2943_                           0.200691836102831 	(obj:0)
_var2945_                           0.206157866209889 	(obj:0)
_var2946_                           0.249479518233036 	(obj:0)
_var2952_                          0.0400272106787903 	(obj:0)
_var2955_                           0.211082075628805 	(obj:0)
_var2962_                           0.309580810828299 	(obj:0)
_var2964_                            0.14321085053831 	(obj:0)
_var2966_                           0.311810089094809 	(obj:0)
_var2967_                           0.141949976204117 	(obj:0)
_var2970_                           0.417981994968382 	(obj:0)
_var2979_                          0.0979099367623055 	(obj:0)
_var2980_                           0.179799537701712 	(obj:0)
_var2981_                         0.00419951685597953 	(obj:0)
_var2985_                           0.163805330774574 	(obj:0)
_var2991_                          0.0271891527017821 	(obj:0)
_var2992_                           0.148477461792185 	(obj:0)
_var2999_                          0.0156398758350714 	(obj:0)
_var3001_                           0.280290672227748 	(obj:0)
_var3002_                         0.00498223418541387 	(obj:0)
_var3003_                           0.127190574243735 	(obj:0)
_var3004_                           0.109165786313128 	(obj:0)
_var3007_                           0.145001387330716 	(obj:0)
_var3008_                          0.0572773527549984 	(obj:0)
_var3009_                           0.294843436340988 	(obj:0)
_var3010_                         0.00865930310185051 	(obj:0)
_var3013_                           0.147776753249062 	(obj:0)
_var3015_                           0.121033068483601 	(obj:0)
_var3016_                           0.298308418132851 	(obj:0)
_var3020_                           0.168791979728315 	(obj:0)
_var3021_                          0.0368106824469436 	(obj:0)
_var3022_                          0.0930279700319594 	(obj:0)
_var3025_                          0.0201017947419436 	(obj:0)
_var3031_                           0.172907210483289 	(obj:0)
_var3038_                          0.0696148141025011 	(obj:0)
_var3044_                         0.00671748422975602 	(obj:0)
_var3046_                           0.166584767737903 	(obj:0)
_var3049_                          0.0355097175643379 	(obj:0)
_var3051_                          0.0345426543799823 	(obj:0)
_var3052_                          0.0785415696620384 	(obj:0)
_var3053_                           0.210817544945503 	(obj:0)
_var3054_                           0.165292449927892 	(obj:0)
_var3056_                           0.193386253347875 	(obj:0)
_var3058_                          0.0369208610237649 	(obj:0)
_var3063_                           0.211660964423015 	(obj:0)
_var3065_                          0.0722299280567174 	(obj:0)
_var3066_                          0.0382400862236742 	(obj:0)
_var3067_                            0.20203345021183 	(obj:0)
_var3070_                          0.0396363496605534 	(obj:0)
_var3072_                          0.0529607689999689 	(obj:0)
_var3074_                           0.214455279521514 	(obj:0)
_var3078_                          0.0879298141948524 	(obj:0)
_var3080_                          0.0393713880595627 	(obj:0)
_var3081_                           0.057711742018416 	(obj:0)
_var3082_                          0.0693341255935365 	(obj:0)
_var3087_                          0.0400178617399814 	(obj:0)
_var3088_                           0.152445016536774 	(obj:0)
_var3090_                          0.0469356451757888 	(obj:0)
_var3091_                          0.0761359635539687 	(obj:0)
_var3092_                          0.0464926824033293 	(obj:0)
_var3093_                           0.157490724089761 	(obj:0)
_var3094_                         0.00107541739106163 	(obj:0)
_var3095_                          0.0878314736475391 	(obj:0)
_var3096_                           0.191275799648711 	(obj:0)
_var3097_                          0.0626906696601913 	(obj:0)
_var3098_                          0.0431015007067844 	(obj:0)
_var3099_                           0.103059327260166 	(obj:0)
_var3100_                           0.109672299455307 	(obj:0)
_var3103_                          0.0320381212940036 	(obj:0)
_var3104_                           0.054860085339293 	(obj:0)
_var3105_                          0.0391358771168683 	(obj:0)
_var3108_                          0.0283553969825581 	(obj:0)
_var3109_                          0.0120925632644726 	(obj:0)
_var3111_                          0.0136517486915922 	(obj:0)
_var3112_                          0.0316744147107012 	(obj:0)
_var3113_                           0.163003707748103 	(obj:0)
_var3114_                          0.0338903941189981 	(obj:0)
_var3115_                          0.0456156538483029 	(obj:0)
_var3116_                          0.0250659819634139 	(obj:0)
_var3117_                          0.0891991329862236 	(obj:0)
_var3118_                           0.118290514036262 	(obj:0)
_var3121_                          0.0496774813401639 	(obj:0)
_var3123_                          0.0289574556124196 	(obj:0)
_var3126_                           0.139477177754287 	(obj:0)
_var3130_                          0.0942234509148372 	(obj:0)
_var3136_                          0.0790071051221055 	(obj:0)
_var3137_                           0.170322482322903 	(obj:0)
_var3138_                          0.0900727981520669 	(obj:0)
_var3140_                          0.0215078928130539 	(obj:0)
_var3142_                          0.0729112903053621 	(obj:0)
_var3143_                           0.146920210080271 	(obj:0)
_var3144_                            0.11306735320861 	(obj:0)
_var3145_                          0.0573058287218596 	(obj:0)
_var3147_                         0.00356567152827308 	(obj:0)
_var3148_                           0.111185244917762 	(obj:0)
_var3149_                          0.0921457363769414 	(obj:0)
_var3150_                          0.0517213502904353 	(obj:0)
_var3154_                         0.00641431483275106 	(obj:0)
_var3155_                          0.0727257588039023 	(obj:0)
_var3158_                         0.00520295671334331 	(obj:0)
_var3159_                          0.0376844881750968 	(obj:0)
_var3160_                           0.135683285597566 	(obj:0)
